86
0 74 28 37 44 63 40 39 23 84 
57 15 27 10 2 54 70 13 1 71 
73 64 5 78 83 33 9 79 29 62 
56 81 20 52 12 76 80 75 85 47 
65 53 24 6 77 18 72 59 55 69 
21 4 34 61 45 38 19 66 22 11 
46 58 36 35 48 50 31 26 68 7 
14 82 25 32 43 3 42 17 67 8 
16 41 51 60 49 30 
